
Gurobi 8.1.1 (win64, Python) logging started 11/13/19 14:51:47

Academic license - for non-commercial use only
Read LP format model from file model.lp
Reading time = 0.94 seconds
Obj: 7459 rows, 13043 columns, 268050 nonzeros
Presolve removed 5832 rows and 4757 columns
Presolve time: 0.53s
Presolved: 1627 rows, 8286 columns, 43670 nonzeros
Variable types: 0 continuous, 8286 integer (8286 binary)

Root relaxation: infeasible, 747 iterations, 0.09 seconds

    Nodes    |    Current Node    |     Objective Bounds      |     Work
 Expl Unexpl |  Obj  Depth IntInf | Incumbent    BestBd   Gap | It/Node Time

     0     0 infeasible    0               - infeasible      -     -    0s

Explored 0 nodes (747 simplex iterations) in 0.77 seconds
Thread count was 8 (of 8 available processors)

Solution count 0

Model is infeasible
Best objective -, best bound -, gap -

Computing Irreducible Inconsistent Subsystem (IIS)...

      Constraints           Bounds       Runtime
     Min       Max       Min      Max
------------------------------------------------
        0     6333         0        1         1s
       40       92         0        0         5s
       90       90         0        0        10s

IIS computed: 90 constraints, 0 bounds
IIS runtime: 9.91 seconds
